$rem
{rem_section}
$end

$molecule
{molecule_section}
$end
